p cnf 823 1330              
65 -307 0
-67 193 0
-65 191 0
-66 191 0
65 66 -191 0
-191 193 0
67 191 -193 0
68 193 -195 0
195 -291 0
1 -211 0
65 -211 0
17 -227 0
66 -227 0
33 -243 0
67 -243 0
49 -259 0
68 -259 0
211 227 243 259 -275 0
275 -291 0
291 -307 0
66 -311 0
195 -295 0
5 -215 0
65 -215 0
21 -231 0
66 -231 0
37 -247 0
67 -247 0
53 -263 0
68 -263 0
215 231 247 263 -279 0
279 -295 0
295 -311 0
67 -315 0
195 -299 0
9 -219 0
65 -219 0
25 -235 0
66 -235 0
41 -251 0
67 -251 0
57 -267 0
68 -267 0
219 235 251 267 -283 0
283 -299 0
299 -315 0
68 -319 0
195 -303 0
13 -223 0
65 -223 0
29 -239 0
66 -239 0
45 -255 0
67 -255 0
61 -271 0
68 -271 0
223 239 255 271 -287 0
287 -303 0
303 -319 0
307 311 315 319 -323 0
323 447 0
-72 202 0
-71 200 0
-69 198 0
-70 198 0
69 70 -198 0
-198 200 0
71 198 -200 0
-200 202 0
72 200 -202 0
-73 -202 327 0
-76 209 0
-75 207 0
-73 205 0
-74 205 0
73 74 -205 0
-205 207 0
75 205 -207 0
-207 209 0
76 207 -209 0
-1 -69 331 0
-331 395 0
-17 -70 347 0
-347 395 0
-33 -71 363 0
-363 395 0
-49 -72 379 0
-379 395 0
-209 -395 411 0
-327 -411 427 0
-427 443 0
-74 -202 328 0
-5 -69 335 0
-335 399 0
-21 -70 351 0
-351 399 0
-37 -71 367 0
-367 399 0
-53 -72 383 0
-383 399 0
-209 -399 415 0
-328 -415 431 0
-431 443 0
-75 -202 329 0
-9 -69 339 0
-339 403 0
-25 -70 355 0
-355 403 0
-41 -71 371 0
-371 403 0
-57 -72 387 0
-387 403 0
-209 -403 419 0
-329 -419 435 0
-435 443 0
-76 -202 330 0
-13 -69 343 0
-343 407 0
-29 -70 359 0
-359 407 0
-45 -71 375 0
-375 407 0
-61 -72 391 0
-391 407 0
-209 -407 423 0
-330 -423 439 0
-439 443 0
-443 447 0
65 -308 0
195 -292 0
2 -212 0
65 -212 0
18 -228 0
66 -228 0
34 -244 0
67 -244 0
50 -260 0
68 -260 0
212 228 244 260 -276 0
276 -292 0
292 -308 0
66 -312 0
195 -296 0
6 -216 0
65 -216 0
22 -232 0
66 -232 0
38 -248 0
67 -248 0
54 -264 0
68 -264 0
216 232 248 264 -280 0
280 -296 0
296 -312 0
67 -316 0
195 -300 0
10 -220 0
65 -220 0
26 -236 0
66 -236 0
42 -252 0
67 -252 0
58 -268 0
68 -268 0
220 236 252 268 -284 0
284 -300 0
300 -316 0
68 -320 0
195 -304 0
14 -224 0
65 -224 0
30 -240 0
66 -240 0
46 -256 0
67 -256 0
62 -272 0
68 -272 0
224 240 256 272 -288 0
288 -304 0
304 -320 0
308 312 316 320 -324 0
324 448 0
-2 -69 332 0
-332 396 0
-18 -70 348 0
-348 396 0
-34 -71 364 0
-364 396 0
-50 -72 380 0
-380 396 0
-209 -396 412 0
-327 -412 428 0
-428 444 0
-6 -69 336 0
-336 400 0
-22 -70 352 0
-352 400 0
-38 -71 368 0
-368 400 0
-54 -72 384 0
-384 400 0
-209 -400 416 0
-328 -416 432 0
-432 444 0
-10 -69 340 0
-340 404 0
-26 -70 356 0
-356 404 0
-42 -71 372 0
-372 404 0
-58 -72 388 0
-388 404 0
-209 -404 420 0
-329 -420 436 0
-436 444 0
-14 -69 344 0
-344 408 0
-30 -70 360 0
-360 408 0
-46 -71 376 0
-376 408 0
-62 -72 392 0
-392 408 0
-209 -408 424 0
-330 -424 440 0
-440 444 0
-444 448 0
65 -309 0
195 -293 0
3 -213 0
65 -213 0
19 -229 0
66 -229 0
35 -245 0
67 -245 0
51 -261 0
68 -261 0
213 229 245 261 -277 0
277 -293 0
293 -309 0
66 -313 0
195 -297 0
7 -217 0
65 -217 0
23 -233 0
66 -233 0
39 -249 0
67 -249 0
55 -265 0
68 -265 0
217 233 249 265 -281 0
281 -297 0
297 -313 0
67 -317 0
195 -301 0
11 -221 0
65 -221 0
27 -237 0
66 -237 0
43 -253 0
67 -253 0
59 -269 0
68 -269 0
221 237 253 269 -285 0
285 -301 0
301 -317 0
68 -321 0
195 -305 0
15 -225 0
65 -225 0
31 -241 0
66 -241 0
47 -257 0
67 -257 0
63 -273 0
68 -273 0
225 241 257 273 -289 0
289 -305 0
305 -321 0
309 313 317 321 -325 0
325 449 0
-3 -69 333 0
-333 397 0
-19 -70 349 0
-349 397 0
-35 -71 365 0
-365 397 0
-51 -72 381 0
-381 397 0
-209 -397 413 0
-327 -413 429 0
-429 445 0
-7 -69 337 0
-337 401 0
-23 -70 353 0
-353 401 0
-39 -71 369 0
-369 401 0
-55 -72 385 0
-385 401 0
-209 -401 417 0
-328 -417 433 0
-433 445 0
-11 -69 341 0
-341 405 0
-27 -70 357 0
-357 405 0
-43 -71 373 0
-373 405 0
-59 -72 389 0
-389 405 0
-209 -405 421 0
-329 -421 437 0
-437 445 0
-15 -69 345 0
-345 409 0
-31 -70 361 0
-361 409 0
-47 -71 377 0
-377 409 0
-63 -72 393 0
-393 409 0
-209 -409 425 0
-330 -425 441 0
-441 445 0
-445 449 0
65 -310 0
195 -294 0
4 -214 0
65 -214 0
20 -230 0
66 -230 0
36 -246 0
67 -246 0
52 -262 0
68 -262 0
214 230 246 262 -278 0
278 -294 0
294 -310 0
66 -314 0
195 -298 0
8 -218 0
65 -218 0
24 -234 0
66 -234 0
40 -250 0
67 -250 0
56 -266 0
68 -266 0
218 234 250 266 -282 0
282 -298 0
298 -314 0
67 -318 0
195 -302 0
12 -222 0
65 -222 0
28 -238 0
66 -238 0
44 -254 0
67 -254 0
60 -270 0
68 -270 0
222 238 254 270 -286 0
286 -302 0
302 -318 0
68 -322 0
195 -306 0
16 -226 0
65 -226 0
32 -242 0
66 -242 0
48 -258 0
67 -258 0
64 -274 0
68 -274 0
226 242 258 274 -290 0
290 -306 0
306 -322 0
310 314 318 322 -326 0
326 450 0
-4 -69 334 0
-334 398 0
-20 -70 350 0
-350 398 0
-36 -71 366 0
-366 398 0
-52 -72 382 0
-382 398 0
-209 -398 414 0
-327 -414 430 0
-430 446 0
-8 -69 338 0
-338 402 0
-24 -70 354 0
-354 402 0
-40 -71 370 0
-370 402 0
-56 -72 386 0
-386 402 0
-209 -402 418 0
-328 -418 434 0
-434 446 0
-12 -69 342 0
-342 406 0
-28 -70 358 0
-358 406 0
-44 -71 374 0
-374 406 0
-60 -72 390 0
-390 406 0
-209 -406 422 0
-329 -422 438 0
-438 446 0
-16 -69 346 0
-346 410 0
-32 -70 362 0
-362 410 0
-48 -71 378 0
-378 410 0
-64 -72 394 0
-394 410 0
-209 -410 426 0
-330 -426 442 0
-442 446 0
-446 450 0
-447 -448 -449 -450 451 0
-451 -452 0
-2 -1 -77 0
77 -83 0
-1 78 0
-2 78 0
1 2 -78 0
-78 -3 -79 0
79 -83 0
-3 80 0
-78 80 0
3 78 -80 0
-80 -4 -81 0
81 -83 0
4 80 -82 0
82 -83 0
83 -189 0
-6 -5 -84 0
84 -90 0
-5 85 0
-6 85 0
5 6 -85 0
-85 -7 -86 0
86 -90 0
-7 87 0
-85 87 0
7 85 -87 0
-87 -8 -88 0
88 -90 0
8 87 -89 0
89 -90 0
90 -189 0
-10 -9 -91 0
91 -97 0
-9 92 0
-10 92 0
9 10 -92 0
-92 -11 -93 0
93 -97 0
-11 94 0
-92 94 0
11 92 -94 0
-94 -12 -95 0
95 -97 0
12 94 -96 0
96 -97 0
97 -189 0
-14 -13 -98 0
98 -104 0
-13 99 0
-14 99 0
13 14 -99 0
-99 -15 -100 0
100 -104 0
-15 101 0
-99 101 0
15 99 -101 0
-101 -16 -102 0
102 -104 0
16 101 -103 0
103 -104 0
104 -189 0
-18 -17 -105 0
105 -111 0
-17 106 0
-18 106 0
17 18 -106 0
-106 -19 -107 0
107 -111 0
-19 108 0
-106 108 0
19 106 -108 0
-108 -20 -109 0
109 -111 0
20 108 -110 0
110 -111 0
111 -189 0
-22 -21 -112 0
112 -118 0
-21 113 0
-22 113 0
21 22 -113 0
-113 -23 -114 0
114 -118 0
-23 115 0
-113 115 0
23 113 -115 0
-115 -24 -116 0
116 -118 0
24 115 -117 0
117 -118 0
118 -189 0
-26 -25 -119 0
119 -125 0
-25 120 0
-26 120 0
25 26 -120 0
-120 -27 -121 0
121 -125 0
-27 122 0
-120 122 0
27 120 -122 0
-122 -28 -123 0
123 -125 0
28 122 -124 0
124 -125 0
125 -189 0
-30 -29 -126 0
126 -132 0
-29 127 0
-30 127 0
29 30 -127 0
-127 -31 -128 0
128 -132 0
-31 129 0
-127 129 0
31 127 -129 0
-129 -32 -130 0
130 -132 0
32 129 -131 0
131 -132 0
132 -189 0
-34 -33 -133 0
133 -139 0
-33 134 0
-34 134 0
33 34 -134 0
-134 -35 -135 0
135 -139 0
-35 136 0
-134 136 0
35 134 -136 0
-136 -36 -137 0
137 -139 0
36 136 -138 0
138 -139 0
139 -189 0
-38 -37 -140 0
140 -146 0
-37 141 0
-38 141 0
37 38 -141 0
-141 -39 -142 0
142 -146 0
-39 143 0
-141 143 0
39 141 -143 0
-143 -40 -144 0
144 -146 0
40 143 -145 0
145 -146 0
146 -189 0
-42 -41 -147 0
147 -153 0
-41 148 0
-42 148 0
41 42 -148 0
-148 -43 -149 0
149 -153 0
-43 150 0
-148 150 0
43 148 -150 0
-150 -44 -151 0
151 -153 0
44 150 -152 0
152 -153 0
153 -189 0
-46 -45 -154 0
154 -160 0
-45 155 0
-46 155 0
45 46 -155 0
-155 -47 -156 0
156 -160 0
-47 157 0
-155 157 0
47 155 -157 0
-157 -48 -158 0
158 -160 0
48 157 -159 0
159 -160 0
160 -189 0
-50 -49 -161 0
161 -167 0
-49 162 0
-50 162 0
49 50 -162 0
-162 -51 -163 0
163 -167 0
-51 164 0
-162 164 0
51 162 -164 0
-164 -52 -165 0
165 -167 0
52 164 -166 0
166 -167 0
167 -189 0
-54 -53 -168 0
168 -174 0
-53 169 0
-54 169 0
53 54 -169 0
-169 -55 -170 0
170 -174 0
-55 171 0
-169 171 0
55 169 -171 0
-171 -56 -172 0
172 -174 0
56 171 -173 0
173 -174 0
174 -189 0
-58 -57 -175 0
175 -181 0
-57 176 0
-58 176 0
57 58 -176 0
-176 -59 -177 0
177 -181 0
-59 178 0
-176 178 0
59 176 -178 0
-178 -60 -179 0
179 -181 0
60 178 -180 0
180 -181 0
181 -189 0
-62 -61 -182 0
182 -188 0
-61 183 0
-62 183 0
61 62 -183 0
-183 -63 -184 0
184 -188 0
-63 185 0
-183 185 0
63 183 -185 0
-185 -64 -186 0
186 -188 0
64 185 -187 0
187 -188 0
188 -189 0
189 -452 0
-66 -65 -190 0
190 -196 0
-191 -67 -192 0
192 -196 0
-193 -68 -194 0
194 -196 0
195 -196 0
196 -452 0
-70 -69 -197 0
197 -203 0
-198 -71 -199 0
199 -203 0
-200 -72 -201 0
201 -203 0
202 -203 0
203 -452 0
-74 -73 -204 0
204 -210 0
-205 -75 -206 0
206 -210 0
-207 -76 -208 0
208 -210 0
209 -210 0
210 -452 0
-65 66 -453 0
453 -575 0
-65 -66 454 0
65 66 454 0
-66 66 454 0
-69 70 -455 0
-454 455 -456 0
456 -575 0
-69 -70 457 0
69 70 457 0
-70 70 457 0
-454 -457 458 0
-73 74 -459 0
-458 459 -460 0
460 -575 0
-73 -74 461 0
73 74 461 0
-74 74 461 0
-458 -461 462 0
-1 22 -463 0
-462 463 -464 0
464 -575 0
-1 -22 465 0
1 22 465 0
-22 22 465 0
-462 -465 466 0
-2 21 -467 0
-466 467 -468 0
468 -575 0
-2 -21 469 0
2 21 469 0
-21 21 469 0
-466 -469 470 0
-3 23 -471 0
-470 471 -472 0
472 -575 0
-3 -23 473 0
3 23 473 0
-23 23 473 0
-470 -473 474 0
-4 24 -475 0
-474 475 -476 0
476 -575 0
-4 -24 477 0
4 24 477 0
-24 24 477 0
-474 -477 478 0
-5 18 -479 0
-478 479 -480 0
480 -575 0
-5 -18 481 0
5 18 481 0
-18 18 481 0
-478 -481 482 0
-6 17 -483 0
-482 483 -484 0
484 -575 0
-6 -17 485 0
6 17 485 0
-17 17 485 0
-482 -485 486 0
-7 19 -487 0
-486 487 -488 0
488 -575 0
-7 -19 489 0
7 19 489 0
-19 19 489 0
-486 -489 490 0
-8 20 -491 0
-490 491 -492 0
492 -575 0
-8 -20 493 0
8 20 493 0
-20 20 493 0
-490 -493 494 0
-9 26 -495 0
-494 495 -496 0
496 -575 0
-9 -26 497 0
9 26 497 0
-26 26 497 0
-494 -497 498 0
-10 25 -499 0
-498 499 -500 0
500 -575 0
-10 -25 501 0
10 25 501 0
-25 25 501 0
-498 -501 502 0
-11 27 -503 0
-502 503 -504 0
504 -575 0
-11 -27 505 0
11 27 505 0
-27 27 505 0
-502 -505 506 0
-12 28 -507 0
-506 507 -508 0
508 -575 0
-12 -28 509 0
12 28 509 0
-28 28 509 0
-506 -509 510 0
-13 30 -511 0
-510 511 -512 0
512 -575 0
-13 -30 513 0
13 30 513 0
-30 30 513 0
-510 -513 514 0
-14 29 -515 0
-514 515 -516 0
516 -575 0
-14 -29 517 0
14 29 517 0
-29 29 517 0
-514 -517 518 0
-15 31 -519 0
-518 519 -520 0
520 -575 0
-15 -31 521 0
15 31 521 0
-31 31 521 0
-518 -521 522 0
-16 32 -523 0
-522 523 -524 0
524 -575 0
-16 -32 525 0
16 32 525 0
-32 32 525 0
-522 -525 526 0
-33 38 -527 0
-526 527 -528 0
528 -575 0
-33 -38 529 0
33 38 529 0
-38 38 529 0
-526 -529 530 0
-34 37 -531 0
-530 531 -532 0
532 -575 0
-34 -37 533 0
34 37 533 0
-37 37 533 0
-530 -533 534 0
-35 39 -535 0
-534 535 -536 0
536 -575 0
-35 -39 537 0
35 39 537 0
-39 39 537 0
-534 -537 538 0
-36 40 -539 0
-538 539 -540 0
540 -575 0
-36 -40 541 0
36 40 541 0
-40 40 541 0
-538 -541 542 0
-41 42 -543 0
-542 543 -544 0
544 -575 0
-41 -42 545 0
41 42 545 0
-42 42 545 0
-542 -545 546 0
-45 46 -547 0
-546 547 -548 0
548 -575 0
-45 -46 549 0
45 46 549 0
-46 46 549 0
-546 -549 550 0
-49 54 -551 0
-550 551 -552 0
552 -575 0
-49 -54 553 0
49 54 553 0
-54 54 553 0
-550 -553 554 0
-50 53 -555 0
-554 555 -556 0
556 -575 0
-50 -53 557 0
50 53 557 0
-53 53 557 0
-554 -557 558 0
-51 55 -559 0
-558 559 -560 0
560 -575 0
-51 -55 561 0
51 55 561 0
-55 55 561 0
-558 -561 562 0
-52 56 -563 0
-562 563 -564 0
564 -575 0
-52 -56 565 0
52 56 565 0
-56 56 565 0
-562 -565 566 0
-57 58 -567 0
-566 567 -568 0
568 -575 0
-57 -58 569 0
57 58 569 0
-58 58 569 0
-566 -569 570 0
-61 62 -571 0
-570 571 -572 0
572 -575 0
575 -822 0
-66 67 -576 0
576 -698 0
-66 -67 577 0
66 67 577 0
-67 67 577 0
-70 71 -578 0
-577 578 -579 0
579 -698 0
-70 -71 580 0
70 71 580 0
-71 71 580 0
-577 -580 581 0
-74 75 -582 0
-581 582 -583 0
583 -698 0
-74 -75 584 0
74 75 584 0
-75 75 584 0
-581 -584 585 0
-2 3 -586 0
-585 586 -587 0
587 -698 0
-2 -3 588 0
2 3 588 0
-3 3 588 0
-585 -588 589 0
-5 9 -590 0
-589 590 -591 0
591 -698 0
-5 -9 592 0
5 9 592 0
-9 9 592 0
-589 -592 593 0
-6 11 -594 0
-593 594 -595 0
595 -698 0
-6 -11 596 0
6 11 596 0
-11 11 596 0
-593 -596 597 0
-7 10 -598 0
-597 598 -599 0
599 -698 0
-7 -10 600 0
7 10 600 0
-10 10 600 0
-597 -600 601 0
-8 12 -602 0
-601 602 -603 0
603 -698 0
-8 -12 604 0
8 12 604 0
-12 12 604 0
-601 -604 605 0
-14 15 -606 0
-605 606 -607 0
607 -698 0
-14 -15 608 0
14 15 608 0
-15 15 608 0
-605 -608 609 0
-17 33 -610 0
-609 610 -611 0
611 -698 0
-17 -33 612 0
17 33 612 0
-33 33 612 0
-609 -612 613 0
-18 35 -614 0
-613 614 -615 0
615 -698 0
-18 -35 616 0
18 35 616 0
-35 35 616 0
-613 -616 617 0
-19 34 -618 0
-617 618 -619 0
619 -698 0
-19 -34 620 0
19 34 620 0
-34 34 620 0
-617 -620 621 0
-20 36 -622 0
-621 622 -623 0
623 -698 0
-20 -36 624 0
20 36 624 0
-36 36 624 0
-621 -624 625 0
-21 41 -626 0
-625 626 -627 0
627 -698 0
-21 -41 628 0
21 41 628 0
-41 41 628 0
-625 -628 629 0
-22 43 -630 0
-629 630 -631 0
631 -698 0
-22 -43 632 0
22 43 632 0
-43 43 632 0
-629 -632 633 0
-23 42 -634 0
-633 634 -635 0
635 -698 0
-23 -42 636 0
23 42 636 0
-42 42 636 0
-633 -636 637 0
-24 44 -638 0
-637 638 -639 0
639 -698 0
-24 -44 640 0
24 44 640 0
-44 44 640 0
-637 -640 641 0
-25 37 -642 0
-641 642 -643 0
643 -698 0
-25 -37 644 0
25 37 644 0
-37 37 644 0
-641 -644 645 0
-26 39 -646 0
-645 646 -647 0
647 -698 0
-26 -39 648 0
26 39 648 0
-39 39 648 0
-645 -648 649 0
-27 38 -650 0
-649 650 -651 0
651 -698 0
-27 -38 652 0
27 38 652 0
-38 38 652 0
-649 -652 653 0
-28 40 -654 0
-653 654 -655 0
655 -698 0
-28 -40 656 0
28 40 656 0
-40 40 656 0
-653 -656 657 0
-29 45 -658 0
-657 658 -659 0
659 -698 0
-29 -45 660 0
29 45 660 0
-45 45 660 0
-657 -660 661 0
-30 47 -662 0
-661 662 -663 0
663 -698 0
-30 -47 664 0
30 47 664 0
-47 47 664 0
-661 -664 665 0
-31 46 -666 0
-665 666 -667 0
667 -698 0
-31 -46 668 0
31 46 668 0
-46 46 668 0
-665 -668 669 0
-32 48 -670 0
-669 670 -671 0
671 -698 0
-32 -48 672 0
32 48 672 0
-48 48 672 0
-669 -672 673 0
-50 51 -674 0
-673 674 -675 0
675 -698 0
-50 -51 676 0
50 51 676 0
-51 51 676 0
-673 -676 677 0
-53 57 -678 0
-677 678 -679 0
679 -698 0
-53 -57 680 0
53 57 680 0
-57 57 680 0
-677 -680 681 0
-54 59 -682 0
-681 682 -683 0
683 -698 0
-54 -59 684 0
54 59 684 0
-59 59 684 0
-681 -684 685 0
-55 58 -686 0
-685 686 -687 0
687 -698 0
-55 -58 688 0
55 58 688 0
-58 58 688 0
-685 -688 689 0
-56 60 -690 0
-689 690 -691 0
691 -698 0
-56 -60 692 0
56 60 692 0
-60 60 692 0
-689 -692 693 0
-62 63 -694 0
-693 694 -695 0
695 -698 0
698 -822 0
-67 68 -699 0
699 -821 0
-67 -68 700 0
67 68 700 0
-68 68 700 0
-71 72 -701 0
-700 701 -702 0
702 -821 0
-71 -72 703 0
71 72 703 0
-72 72 703 0
-700 -703 704 0
-75 76 -705 0
-704 705 -706 0
706 -821 0
-75 -76 707 0
75 76 707 0
-76 76 707 0
-704 -707 708 0
-3 4 -709 0
-708 709 -710 0
710 -821 0
-3 -4 711 0
3 4 711 0
-4 4 711 0
-708 -711 712 0
-7 8 -713 0
-712 713 -714 0
714 -821 0
-7 -8 715 0
7 8 715 0
-8 8 715 0
-712 -715 716 0
-9 13 -717 0
-716 717 -718 0
718 -821 0
-9 -13 719 0
9 13 719 0
-13 13 719 0
-716 -719 720 0
-10 14 -721 0
-720 721 -722 0
722 -821 0
-10 -14 723 0
10 14 723 0
-14 14 723 0
-720 -723 724 0
-11 16 -725 0
-724 725 -726 0
726 -821 0
-11 -16 727 0
11 16 727 0
-16 16 727 0
-724 -727 728 0
-12 15 -729 0
-728 729 -730 0
730 -821 0
-12 -15 731 0
12 15 731 0
-15 15 731 0
-728 -731 732 0
-19 20 -733 0
-732 733 -734 0
734 -821 0
-19 -20 735 0
19 20 735 0
-20 20 735 0
-732 -735 736 0
-23 24 -737 0
-736 737 -738 0
738 -821 0
-23 -24 739 0
23 24 739 0
-24 24 739 0
-736 -739 740 0
-25 29 -741 0
-740 741 -742 0
742 -821 0
-25 -29 743 0
25 29 743 0
-29 29 743 0
-740 -743 744 0
-26 30 -745 0
-744 745 -746 0
746 -821 0
-26 -30 747 0
26 30 747 0
-30 30 747 0
-744 -747 748 0
-27 32 -749 0
-748 749 -750 0
750 -821 0
-27 -32 751 0
27 32 751 0
-32 32 751 0
-748 -751 752 0
-28 31 -753 0
-752 753 -754 0
754 -821 0
-28 -31 755 0
28 31 755 0
-31 31 755 0
-752 -755 756 0
-33 49 -757 0
-756 757 -758 0
758 -821 0
-33 -49 759 0
33 49 759 0
-49 49 759 0
-756 -759 760 0
-34 50 -761 0
-760 761 -762 0
762 -821 0
-34 -50 763 0
34 50 763 0
-50 50 763 0
-760 -763 764 0
-35 52 -765 0
-764 765 -766 0
766 -821 0
-35 -52 767 0
35 52 767 0
-52 52 767 0
-764 -767 768 0
-36 51 -769 0
-768 769 -770 0
770 -821 0
-36 -51 771 0
36 51 771 0
-51 51 771 0
-768 -771 772 0
-37 53 -773 0
-772 773 -774 0
774 -821 0
-37 -53 775 0
37 53 775 0
-53 53 775 0
-772 -775 776 0
-38 54 -777 0
-776 777 -778 0
778 -821 0
-38 -54 779 0
38 54 779 0
-54 54 779 0
-776 -779 780 0
-39 56 -781 0
-780 781 -782 0
782 -821 0
-39 -56 783 0
39 56 783 0
-56 56 783 0
-780 -783 784 0
-40 55 -785 0
-784 785 -786 0
786 -821 0
-40 -55 787 0
40 55 787 0
-55 55 787 0
-784 -787 788 0
-41 61 -789 0
-788 789 -790 0
790 -821 0
-41 -61 791 0
41 61 791 0
-61 61 791 0
-788 -791 792 0
-42 62 -793 0
-792 793 -794 0
794 -821 0
-42 -62 795 0
42 62 795 0
-62 62 795 0
-792 -795 796 0
-43 64 -797 0
-796 797 -798 0
798 -821 0
-43 -64 799 0
43 64 799 0
-64 64 799 0
-796 -799 800 0
-44 63 -801 0
-800 801 -802 0
802 -821 0
-44 -63 803 0
44 63 803 0
-63 63 803 0
-800 -803 804 0
-45 57 -805 0
-804 805 -806 0
806 -821 0
-45 -57 807 0
45 57 807 0
-57 57 807 0
-804 -807 808 0
-46 58 -809 0
-808 809 -810 0
810 -821 0
-46 -58 811 0
46 58 811 0
-58 58 811 0
-808 -811 812 0
-47 60 -813 0
-812 813 -814 0
814 -821 0
-47 -60 815 0
47 60 815 0
-60 60 815 0
-812 -815 816 0
-48 59 -817 0
-816 817 -818 0
818 -821 0
821 -822 0
452 0
822 0
